17	4
37	33	46	32	
0	0	0	0	0	3	2	3	4	
9	9	9	9	0	3	5	7	9	
1	9	10	0	2	3	8	10	12	
5	1	8	2	10	3	5	6	7	
2	6	0	7	9	3	12	17	17	
200	7	1	2	10	3	12	17	17	
250	0	10	8	6	3	10	16	17	
225	0	0	9	5	3	13	14	17	
200	2	5	10	0	3	10	15	17	
200	0	0	10	0	2	11	17	
225	0	4	5	9	2	17	17	
175	9	8	0	4	2	17	17	
2	0	10	9	2	3	16	17	17	
8	3	0	10	5	3	17	17	17	
9	5	0	5	9	3	17	17	17	
8	8	8	5	1	3	17	17	17	
0	0	0	0	0	0	
